100
120
100
100
99
99
98
97
97
97
96
96
96
96
95
94
93
89
88
87
86
85
85
85
85
84
84
84
83
83
82
81
81
81
80
80
79
78
78
77
77
77
76
75
72
72
70
69
69
69
69
66
66
65
64
64
63
63
62
59
59
58
58
57
57
57
55
54
52
52
51
51
51
48
47
47
47
46
46
45
45
45
44
43
43
42
42
42
42
39
37
37
37
35
34
33
32
32
31
31
30
30
